c description: Random 3-CNF over 21 variables and 89 clauses
c generator: CNFgen (0.9.2)
c copyright: (C) 2012-2022 Massimo Lauria <massimo.lauria@uniroma1.it>
c url: https://massimolauria.net/cnfgen
c command line: cnfgen --output CNF_4.28/21_bit_89_207.cnf randkcnf 3 21 89
c
p cnf 21 89
-5 6 -16 0
-9 -14 -16 0
12 -17 19 0
3 -4 17 0
6 -7 -11 0
-1 -2 -16 0
2 -12 21 0
9 14 -21 0
-8 -9 -16 0
-12 -14 21 0
1 -12 18 0
2 11 13 0
-2 4 5 0
2 4 -8 0
13 14 -18 0
7 -10 16 0
7 10 20 0
6 9 -11 0
-1 15 -17 0
2 13 18 0
8 -10 21 0
9 15 -17 0
-10 19 20 0
9 12 -16 0
-10 15 -19 0
-12 14 -18 0
-5 -13 -21 0
11 14 -21 0
-5 -12 20 0
-3 7 -8 0
2 10 15 0
6 12 -19 0
3 5 -11 0
3 -9 21 0
7 18 -19 0
8 -11 -14 0
-12 13 -18 0
-15 -19 21 0
8 -9 19 0
-5 -6 21 0
-8 -13 16 0
15 -16 18 0
-7 15 -16 0
-1 -11 17 0
-8 13 16 0
-1 -15 20 0
-5 -13 -16 0
-8 13 18 0
-14 16 -21 0
-3 -4 -5 0
2 10 19 0
-13 18 20 0
-4 8 -19 0
1 3 -17 0
-9 -13 21 0
6 -9 11 0
4 8 17 0
-8 -18 19 0
-2 -3 -21 0
-5 -6 -17 0
1 -4 19 0
1 -13 15 0
5 -14 -20 0
-3 8 -12 0
-5 -15 -16 0
5 -19 -20 0
-10 -12 14 0
-3 -4 -7 0
5 -8 -21 0
4 5 -15 0
-5 -6 -11 0
-1 -2 14 0
5 7 16 0
-4 -7 17 0
-10 -14 -21 0
-4 13 -21 0
1 -13 -20 0
5 8 21 0
3 4 -10 0
3 19 21 0
-6 9 21 0
14 -15 -19 0
-5 13 -15 0
-4 20 -21 0
1 13 16 0
-7 16 19 0
-8 -11 13 0
-14 -16 19 0
-1 11 -17 0
